letting n =  10
letting blocks =  [[1, 5], [1, 7], [2, 7], [3, 1], [3, 4], [3, 6], [3, 10], [4, 3], [4, 7], [4, 10], [5, 10], [6, 2], [6, 3], [7, 2], [7, 4], [7, 6], [8, 2], [8, 3], [8, 5], [9, 1], [9, 4], [10, 4]]
